c "random instance"
p edges 150 4397
e 1 2
e 1 3
e 1 5
e 1 6
e 1 7
e 1 12
e 1 16
e 1 17
e 1 18
e 1 19
e 1 20
e 1 29
e 1 30
e 1 35
e 1 40
e 1 43
e 1 46
e 1 47
e 1 49
e 1 50
e 1 54
e 1 58
e 1 59
e 1 62
e 1 66
e 1 68
e 1 69
e 1 73
e 1 75
e 1 76
e 1 78
e 1 81
e 1 82
e 1 88
e 1 91
e 1 92
e 1 96
e 1 99
e 1 100
e 1 105
e 1 106
e 1 107
e 1 108
e 1 109
e 1 112
e 1 113
e 1 114
e 1 121
e 1 122
e 1 124
e 1 125
e 1 126
e 1 128
e 1 130
e 1 132
e 1 135
e 1 136
e 1 138
e 1 141
e 1 144
e 1 146
e 1 147
e 2 11
e 2 14
e 2 16
e 2 20
e 2 22
e 2 24
e 2 27
e 2 29
e 2 30
e 2 32
e 2 36
e 2 40
e 2 41
e 2 44
e 2 46
e 2 47
e 2 48
e 2 52
e 2 53
e 2 54
e 2 55
e 2 57
e 2 63
e 2 64
e 2 67
e 2 69
e 2 71
e 2 74
e 2 80
e 2 82
e 2 88
e 2 89
e 2 94
e 2 95
e 2 96
e 2 98
e 2 103
e 2 104
e 2 105
e 2 107
e 2 110
e 2 113
e 2 114
e 2 118
e 2 120
e 2 122
e 2 124
e 2 125
e 2 126
e 2 127
e 2 128
e 2 138
e 2 139
e 2 150
e 3 4
e 3 6
e 3 9
e 3 10
e 3 13
e 3 14
e 3 15
e 3 20
e 3 21
e 3 25
e 3 26
e 3 30
e 3 31
e 3 32
e 3 36
e 3 39
e 3 46
e 3 49
e 3 52
e 3 54
e 3 55
e 3 56
e 3 59
e 3 60
e 3 63
e 3 67
e 3 68
e 3 71
e 3 73
e 3 74
e 3 75
e 3 77
e 3 84
e 3 85
e 3 86
e 3 91
e 3 92
e 3 97
e 3 101
e 3 102
e 3 103
e 3 104
e 3 115
e 3 116
e 3 118
e 3 122
e 3 125
e 3 127
e 3 128
e 3 129
e 3 134
e 3 135
e 3 143
e 3 144
e 3 147
e 3 148
e 3 149
e 4 5
e 4 11
e 4 12
e 4 13
e 4 14
e 4 15
e 4 20
e 4 27
e 4 28
e 4 31
e 4 32
e 4 37
e 4 38
e 4 39
e 4 40
e 4 42
e 4 43
e 4 46
e 4 47
e 4 50
e 4 55
e 4 56
e 4 57
e 4 59
e 4 60
e 4 61
e 4 65
e 4 67
e 4 68
e 4 69
e 4 70
e 4 72
e 4 73
e 4 74
e 4 75
e 4 78
e 4 81
e 4 82
e 4 84
e 4 95
e 4 98
e 4 100
e 4 101
e 4 104
e 4 109
e 4 111
e 4 112
e 4 115
e 4 116
e 4 125
e 4 127
e 4 129
e 4 131
e 4 134
e 4 136
e 4 137
e 4 146
e 4 150
e 5 6
e 5 7
e 5 8
e 5 11
e 5 13
e 5 16
e 5 17
e 5 18
e 5 22
e 5 24
e 5 25
e 5 26
e 5 27
e 5 29
e 5 30
e 5 34
e 5 38
e 5 39
e 5 42
e 5 43
e 5 45
e 5 47
e 5 49
e 5 53
e 5 55
e 5 59
e 5 61
e 5 62
e 5 65
e 5 69
e 5 72
e 5 74
e 5 75
e 5 76
e 5 77
e 5 78
e 5 81
e 5 83
e 5 86
e 5 87
e 5 88
e 5 91
e 5 94
e 5 95
e 5 97
e 5 98
e 5 99
e 5 100
e 5 101
e 5 105
e 5 107
e 5 108
e 5 110
e 5 112
e 5 113
e 5 115
e 5 116
e 5 120
e 5 121
e 5 124
e 5 126
e 5 131
e 5 132
e 5 135
e 5 137
e 5 139
e 5 144
e 5 146
e 6 8
e 6 9
e 6 10
e 6 15
e 6 20
e 6 21
e 6 25
e 6 32
e 6 33
e 6 36
e 6 37
e 6 38
e 6 39
e 6 42
e 6 44
e 6 45
e 6 46
e 6 47
e 6 53
e 6 55
e 6 57
e 6 58
e 6 59
e 6 64
e 6 69
e 6 71
e 6 72
e 6 73
e 6 74
e 6 81
e 6 83
e 6 84
e 6 89
e 6 94
e 6 97
e 6 98
e 6 99
e 6 100
e 6 104
e 6 111
e 6 113
e 6 115
e 6 116
e 6 119
e 6 122
e 6 127
e 6 128
e 6 131
e 6 135
e 6 136
e 6 143
e 6 144
e 6 146
e 6 148
e 6 149
e 6 150
e 7 9
e 7 12
e 7 13
e 7 16
e 7 17
e 7 23
e 7 24
e 7 33
e 7 34
e 7 38
e 7 44
e 7 45
e 7 50
e 7 51
e 7 53
e 7 55
e 7 58
e 7 59
e 7 60
e 7 62
e 7 66
e 7 71
e 7 73
e 7 75
e 7 78
e 7 79
e 7 80
e 7 82
e 7 83
e 7 85
e 7 86
e 7 89
e 7 94
e 7 95
e 7 96
e 7 97
e 7 99
e 7 105
e 7 107
e 7 111
e 7 113
e 7 116
e 7 120
e 7 122
e 7 124
e 7 126
e 7 127
e 7 128
e 7 134
e 7 137
e 7 138
e 7 139
e 7 140
e 7 143
e 7 147
e 8 9
e 8 13
e 8 15
e 8 17
e 8 18
e 8 19
e 8 20
e 8 22
e 8 23
e 8 33
e 8 36
e 8 38
e 8 40
e 8 41
e 8 42
e 8 45
e 8 53
e 8 54
e 8 56
e 8 60
e 8 64
e 8 66
e 8 69
e 8 74
e 8 75
e 8 76
e 8 77
e 8 78
e 8 80
e 8 82
e 8 88
e 8 91
e 8 94
e 8 97
e 8 99
e 8 102
e 8 105
e 8 111
e 8 112
e 8 113
e 8 115
e 8 116
e 8 122
e 8 123
e 8 127
e 8 128
e 8 129
e 8 131
e 8 133
e 8 137
e 8 139
e 8 140
e 8 145
e 8 146
e 8 147
e 8 148
e 8 149
e 9 10
e 9 11
e 9 13
e 9 15
e 9 17
e 9 21
e 9 23
e 9 25
e 9 26
e 9 29
e 9 34
e 9 37
e 9 38
e 9 42
e 9 44
e 9 47
e 9 49
e 9 51
e 9 53
e 9 58
e 9 62
e 9 63
e 9 64
e 9 66
e 9 67
e 9 70
e 9 72
e 9 74
e 9 77
e 9 78
e 9 80
e 9 81
e 9 82
e 9 85
e 9 86
e 9 89
e 9 92
e 9 94
e 9 95
e 9 97
e 9 100
e 9 101
e 9 108
e 9 111
e 9 114
e 9 115
e 9 117
e 9 121
e 9 130
e 9 131
e 9 134
e 9 135
e 9 136
e 9 139
e 9 140
e 9 142
e 9 143
e 9 144
e 9 145
e 9 146
e 9 150
e 10 15
e 10 17
e 10 20
e 10 23
e 10 24
e 10 27
e 10 29
e 10 31
e 10 32
e 10 34
e 10 35
e 10 40
e 10 41
e 10 43
e 10 45
e 10 51
e 10 54
e 10 56
e 10 58
e 10 59
e 10 61
e 10 62
e 10 65
e 10 66
e 10 67
e 10 69
e 10 77
e 10 83
e 10 89
e 10 92
e 10 94
e 10 95
e 10 98
e 10 100
e 10 101
e 10 104
e 10 110
e 10 112
e 10 113
e 10 115
e 10 116
e 10 120
e 10 122
e 10 124
e 10 127
e 10 129
e 10 131
e 10 132
e 10 136
e 10 137
e 10 138
e 10 139
e 10 140
e 10 144
e 10 146
e 11 12
e 11 13
e 11 14
e 11 16
e 11 17
e 11 20
e 11 21
e 11 22
e 11 24
e 11 26
e 11 30
e 11 32
e 11 33
e 11 35
e 11 37
e 11 45
e 11 48
e 11 49
e 11 51
e 11 52
e 11 54
e 11 56
e 11 58
e 11 59
e 11 62
e 11 65
e 11 67
e 11 70
e 11 71
e 11 72
e 11 73
e 11 76
e 11 77
e 11 78
e 11 79
e 11 87
e 11 89
e 11 91
e 11 92
e 11 93
e 11 95
e 11 96
e 11 101
e 11 103
e 11 104
e 11 108
e 11 113
e 11 114
e 11 117
e 11 126
e 11 127
e 11 129
e 11 130
e 11 131
e 11 132
e 11 136
e 11 138
e 11 140
e 11 149
e 12 25
e 12 27
e 12 31
e 12 32
e 12 37
e 12 39
e 12 40
e 12 41
e 12 44
e 12 46
e 12 47
e 12 49
e 12 57
e 12 66
e 12 68
e 12 69
e 12 75
e 12 77
e 12 85
e 12 86
e 12 88
e 12 91
e 12 93
e 12 96
e 12 98
e 12 99
e 12 102
e 12 104
e 12 110
e 12 111
e 12 112
e 12 114
e 12 115
e 12 118
e 12 119
e 12 122
e 12 124
e 12 125
e 12 126
e 12 127
e 12 128
e 12 135
e 12 137
e 13 14
e 13 15
e 13 19
e 13 24
e 13 28
e 13 31
e 13 36
e 13 37
e 13 39
e 13 40
e 13 41
e 13 42
e 13 45
e 13 51
e 13 52
e 13 55
e 13 57
e 13 58
e 13 59
e 13 61
e 13 63
e 13 66
e 13 67
e 13 68
e 13 70
e 13 73
e 13 74
e 13 75
e 13 86
e 13 95
e 13 97
e 13 98
e 13 99
e 13 103
e 13 107
e 13 109
e 13 111
e 13 113
e 13 115
e 13 117
e 13 120
e 13 121
e 13 134
e 13 135
e 13 137
e 13 139
e 13 143
e 13 145
e 13 146
e 13 148
e 14 15
e 14 21
e 14 23
e 14 30
e 14 31
e 14 33
e 14 38
e 14 41
e 14 42
e 14 44
e 14 45
e 14 46
e 14 47
e 14 52
e 14 55
e 14 56
e 14 58
e 14 61
e 14 62
e 14 63
e 14 65
e 14 66
e 14 67
e 14 68
e 14 71
e 14 73
e 14 76
e 14 78
e 14 82
e 14 83
e 14 86
e 14 88
e 14 92
e 14 93
e 14 97
e 14 99
e 14 100
e 14 102
e 14 105
e 14 109
e 14 114
e 14 115
e 14 117
e 14 118
e 14 119
e 14 121
e 14 122
e 14 123
e 14 124
e 14 125
e 14 127
e 14 133
e 14 134
e 14 138
e 14 144
e 14 146
e 14 150
e 15 20
e 15 21
e 15 22
e 15 23
e 15 24
e 15 27
e 15 28
e 15 29
e 15 31
e 15 34
e 15 35
e 15 36
e 15 47
e 15 50
e 15 52
e 15 53
e 15 54
e 15 55
e 15 56
e 15 59
e 15 61
e 15 65
e 15 66
e 15 67
e 15 68
e 15 71
e 15 72
e 15 74
e 15 77
e 15 83
e 15 87
e 15 90
e 15 92
e 15 93
e 15 94
e 15 99
e 15 103
e 15 104
e 15 106
e 15 109
e 15 110
e 15 111
e 15 112
e 15 114
e 15 115
e 15 116
e 15 117
e 15 118
e 15 121
e 15 122
e 15 123
e 15 124
e 15 125
e 15 130
e 15 131
e 15 132
e 15 133
e 15 135
e 15 139
e 15 140
e 15 143
e 15 145
e 15 149
e 16 17
e 16 18
e 16 23
e 16 26
e 16 27
e 16 32
e 16 35
e 16 36
e 16 40
e 16 41
e 16 42
e 16 43
e 16 44
e 16 48
e 16 50
e 16 53
e 16 54
e 16 56
e 16 58
e 16 64
e 16 66
e 16 67
e 16 73
e 16 75
e 16 77
e 16 79
e 16 82
e 16 83
e 16 84
e 16 87
e 16 91
e 16 93
e 16 96
e 16 102
e 16 105
e 16 108
e 16 109
e 16 111
e 16 112
e 16 114
e 16 118
e 16 119
e 16 120
e 16 122
e 16 124
e 16 125
e 16 126
e 16 128
e 16 130
e 16 131
e 16 134
e 16 137
e 16 141
e 16 143
e 16 147
e 17 19
e 17 23
e 17 27
e 17 31
e 17 35
e 17 37
e 17 41
e 17 43
e 17 45
e 17 47
e 17 51
e 17 54
e 17 56
e 17 57
e 17 59
e 17 64
e 17 74
e 17 78
e 17 79
e 17 81
e 17 82
e 17 85
e 17 87
e 17 91
e 17 93
e 17 97
e 17 100
e 17 105
e 17 108
e 17 110
e 17 113
e 17 115
e 17 117
e 17 120
e 17 121
e 17 122
e 17 128
e 17 131
e 17 134
e 17 137
e 17 140
e 17 141
e 17 145
e 18 23
e 18 25
e 18 27
e 18 29
e 18 31
e 18 33
e 18 37
e 18 38
e 18 39
e 18 41
e 18 43
e 18 45
e 18 48
e 18 49
e 18 52
e 18 53
e 18 55
e 18 57
e 18 58
e 18 59
e 18 60
e 18 61
e 18 62
e 18 63
e 18 67
e 18 72
e 18 76
e 18 77
e 18 78
e 18 80
e 18 87
e 18 88
e 18 90
e 18 93
e 18 95
e 18 96
e 18 97
e 18 98
e 18 99
e 18 101
e 18 103
e 18 106
e 18 109
e 18 110
e 18 112
e 18 113
e 18 115
e 18 116
e 18 123
e 18 124
e 18 128
e 18 135
e 18 137
e 18 141
e 18 142
e 18 146
e 18 147
e 18 149
e 18 150
e 19 20
e 19 21
e 19 22
e 19 23
e 19 25
e 19 26
e 19 28
e 19 30
e 19 31
e 19 35
e 19 41
e 19 43
e 19 44
e 19 45
e 19 47
e 19 55
e 19 57
e 19 58
e 19 60
e 19 61
e 19 62
e 19 64
e 19 66
e 19 67
e 19 74
e 19 75
e 19 78
e 19 79
e 19 85
e 19 86
e 19 87
e 19 88
e 19 90
e 19 91
e 19 92
e 19 95
e 19 97
e 19 98
e 19 103
e 19 105
e 19 106
e 19 110
e 19 114
e 19 115
e 19 116
e 19 125
e 19 128
e 19 131
e 19 133
e 19 134
e 19 135
e 19 138
e 19 139
e 19 140
e 19 141
e 19 143
e 19 148
e 20 23
e 20 28
e 20 31
e 20 33
e 20 35
e 20 39
e 20 42
e 20 48
e 20 52
e 20 53
e 20 56
e 20 66
e 20 67
e 20 69
e 20 71
e 20 73
e 20 74
e 20 80
e 20 82
e 20 84
e 20 85
e 20 89
e 20 92
e 20 97
e 20 98
e 20 99
e 20 100
e 20 101
e 20 104
e 20 108
e 20 109
e 20 110
e 20 112
e 20 115
e 20 116
e 20 117
e 20 119
e 20 120
e 20 121
e 20 124
e 20 132
e 20 134
e 20 136
e 20 137
e 20 139
e 20 145
e 20 146
e 20 147
e 20 148
e 20 149
e 21 22
e 21 24
e 21 25
e 21 27
e 21 28
e 21 32
e 21 38
e 21 41
e 21 42
e 21 43
e 21 45
e 21 46
e 21 47
e 21 53
e 21 54
e 21 57
e 21 58
e 21 60
e 21 62
e 21 67
e 21 69
e 21 71
e 21 72
e 21 74
e 21 76
e 21 77
e 21 79
e 21 80
e 21 83
e 21 85
e 21 86
e 21 91
e 21 92
e 21 94
e 21 96
e 21 100
e 21 102
e 21 105
e 21 107
e 21 108
e 21 109
e 21 111
e 21 113
e 21 116
e 21 117
e 21 118
e 21 122
e 21 123
e 21 124
e 21 126
e 21 130
e 21 135
e 21 140
e 21 142
e 21 150
e 22 25
e 22 30
e 22 32
e 22 33
e 22 39
e 22 41
e 22 44
e 22 48
e 22 50
e 22 51
e 22 56
e 22 57
e 22 58
e 22 60
e 22 61
e 22 66
e 22 67
e 22 70
e 22 72
e 22 73
e 22 74
e 22 75
e 22 81
e 22 86
e 22 87
e 22 88
e 22 89
e 22 90
e 22 94
e 22 97
e 22 103
e 22 109
e 22 112
e 22 116
e 22 118
e 22 119
e 22 123
e 22 124
e 22 125
e 22 126
e 22 128
e 22 131
e 22 132
e 22 141
e 22 142
e 22 143
e 22 144
e 23 24
e 23 30
e 23 33
e 23 37
e 23 45
e 23 46
e 23 47
e 23 48
e 23 49
e 23 50
e 23 53
e 23 54
e 23 56
e 23 58
e 23 61
e 23 63
e 23 65
e 23 71
e 23 77
e 23 79
e 23 82
e 23 83
e 23 88
e 23 94
e 23 95
e 23 98
e 23 107
e 23 108
e 23 112
e 23 113
e 23 118
e 23 119
e 23 120
e 23 124
e 23 127
e 23 138
e 23 139
e 23 141
e 23 142
e 23 143
e 23 144
e 23 146
e 23 147
e 23 148
e 23 149
e 24 27
e 24 30
e 24 33
e 24 34
e 24 35
e 24 37
e 24 38
e 24 40
e 24 41
e 24 42
e 24 46
e 24 47
e 24 49
e 24 50
e 24 52
e 24 57
e 24 58
e 24 59
e 24 60
e 24 65
e 24 67
e 24 72
e 24 75
e 24 82
e 24 86
e 24 87
e 24 91
e 24 94
e 24 97
e 24 99
e 24 101
e 24 102
e 24 106
e 24 108
e 24 115
e 24 116
e 24 117
e 24 120
e 24 122
e 24 125
e 24 126
e 24 127
e 24 128
e 24 129
e 24 135
e 24 138
e 24 139
e 24 140
e 24 141
e 24 142
e 24 144
e 24 145
e 24 147
e 24 150
e 25 26
e 25 29
e 25 32
e 25 33
e 25 34
e 25 38
e 25 43
e 25 45
e 25 49
e 25 50
e 25 60
e 25 65
e 25 66
e 25 69
e 25 72
e 25 75
e 25 78
e 25 85
e 25 92
e 25 94
e 25 96
e 25 100
e 25 111
e 25 112
e 25 113
e 25 114
e 25 115
e 25 116
e 25 117
e 25 119
e 25 131
e 25 133
e 25 137
e 25 140
e 25 142
e 25 144
e 26 29
e 26 30
e 26 32
e 26 34
e 26 35
e 26 36
e 26 37
e 26 38
e 26 40
e 26 41
e 26 43
e 26 44
e 26 46
e 26 48
e 26 49
e 26 58
e 26 60
e 26 61
e 26 62
e 26 65
e 26 67
e 26 68
e 26 69
e 26 71
e 26 73
e 26 75
e 26 77
e 26 78
e 26 80
e 26 81
e 26 86
e 26 90
e 26 91
e 26 96
e 26 100
e 26 106
e 26 108
e 26 110
e 26 113
e 26 114
e 26 119
e 26 121
e 26 122
e 26 130
e 26 131
e 26 132
e 26 134
e 26 138
e 26 141
e 26 142
e 26 145
e 26 147
e 26 150
e 27 38
e 27 41
e 27 42
e 27 46
e 27 47
e 27 51
e 27 52
e 27 53
e 27 55
e 27 58
e 27 59
e 27 61
e 27 62
e 27 63
e 27 64
e 27 67
e 27 70
e 27 72
e 27 73
e 27 74
e 27 76
e 27 80
e 27 82
e 27 83
e 27 85
e 27 86
e 27 88
e 27 90
e 27 92
e 27 98
e 27 101
e 27 102
e 27 111
e 27 112
e 27 115
e 27 118
e 27 119
e 27 124
e 27 125
e 27 126
e 27 132
e 27 134
e 27 139
e 27 142
e 27 144
e 27 145
e 27 148
e 27 149
e 28 32
e 28 35
e 28 36
e 28 37
e 28 45
e 28 46
e 28 58
e 28 60
e 28 64
e 28 67
e 28 69
e 28 71
e 28 73
e 28 74
e 28 75
e 28 76
e 28 77
e 28 80
e 28 82
e 28 83
e 28 85
e 28 86
e 28 87
e 28 90
e 28 92
e 28 94
e 28 95
e 28 99
e 28 100
e 28 107
e 28 109
e 28 111
e 28 113
e 28 114
e 28 117
e 28 121
e 28 124
e 28 127
e 28 129
e 28 141
e 28 145
e 28 146
e 29 32
e 29 33
e 29 40
e 29 44
e 29 47
e 29 50
e 29 53
e 29 61
e 29 65
e 29 68
e 29 69
e 29 73
e 29 79
e 29 83
e 29 84
e 29 87
e 29 90
e 29 91
e 29 92
e 29 95
e 29 100
e 29 102
e 29 109
e 29 110
e 29 112
e 29 115
e 29 118
e 29 120
e 29 121
e 29 124
e 29 129
e 29 131
e 29 132
e 29 138
e 29 139
e 29 142
e 29 144
e 29 146
e 29 147
e 29 150
e 30 38
e 30 40
e 30 41
e 30 43
e 30 44
e 30 47
e 30 49
e 30 52
e 30 53
e 30 54
e 30 55
e 30 57
e 30 58
e 30 59
e 30 61
e 30 63
e 30 66
e 30 67
e 30 69
e 30 71
e 30 72
e 30 73
e 30 75
e 30 78
e 30 79
e 30 80
e 30 81
e 30 84
e 30 90
e 30 91
e 30 92
e 30 95
e 30 97
e 30 98
e 30 109
e 30 112
e 30 113
e 30 116
e 30 117
e 30 121
e 30 122
e 30 126
e 30 130
e 30 131
e 30 133
e 30 135
e 30 136
e 30 140
e 30 141
e 30 144
e 30 145
e 30 147
e 30 148
e 31 37
e 31 40
e 31 45
e 31 47
e 31 48
e 31 49
e 31 55
e 31 56
e 31 58
e 31 59
e 31 65
e 31 72
e 31 74
e 31 77
e 31 78
e 31 81
e 31 84
e 31 85
e 31 87
e 31 90
e 31 93
e 31 96
e 31 98
e 31 100
e 31 104
e 31 105
e 31 107
e 31 110
e 31 116
e 31 119
e 31 120
e 31 124
e 31 126
e 31 132
e 31 133
e 31 136
e 31 137
e 31 144
e 31 146
e 31 148
e 31 149
e 32 33
e 32 39
e 32 40
e 32 41
e 32 42
e 32 44
e 32 45
e 32 47
e 32 48
e 32 51
e 32 53
e 32 54
e 32 59
e 32 62
e 32 63
e 32 66
e 32 68
e 32 69
e 32 72
e 32 76
e 32 80
e 32 81
e 32 82
e 32 84
e 32 89
e 32 90
e 32 95
e 32 96
e 32 98
e 32 99
e 32 100
e 32 102
e 32 107
e 32 112
e 32 115
e 32 119
e 32 120
e 32 123
e 32 130
e 32 131
e 32 135
e 32 136
e 32 137
e 32 138
e 32 139
e 32 140
e 32 142
e 32 147
e 32 148
e 32 149
e 33 36
e 33 38
e 33 39
e 33 41
e 33 44
e 33 47
e 33 49
e 33 51
e 33 52
e 33 54
e 33 55
e 33 56
e 33 59
e 33 64
e 33 65
e 33 69
e 33 71
e 33 72
e 33 73
e 33 74
e 33 76
e 33 77
e 33 78
e 33 80
e 33 96
e 33 97
e 33 98
e 33 99
e 33 100
e 33 101
e 33 102
e 33 103
e 33 104
e 33 106
e 33 108
e 33 110
e 33 113
e 33 114
e 33 116
e 33 123
e 33 125
e 33 128
e 33 129
e 33 130
e 33 131
e 33 132
e 33 134
e 33 138
e 33 139
e 33 145
e 33 146
e 33 147
e 33 149
e 33 150
e 34 39
e 34 41
e 34 42
e 34 46
e 34 47
e 34 50
e 34 51
e 34 53
e 34 60
e 34 61
e 34 63
e 34 67
e 34 76
e 34 78
e 34 80
e 34 81
e 34 86
e 34 89
e 34 92
e 34 94
e 34 95
e 34 96
e 34 97
e 34 102
e 34 104
e 34 107
e 34 111
e 34 114
e 34 119
e 34 120
e 34 125
e 34 127
e 34 129
e 34 134
e 34 138
e 34 139
e 34 141
e 34 148
e 35 36
e 35 38
e 35 39
e 35 40
e 35 41
e 35 47
e 35 48
e 35 50
e 35 51
e 35 53
e 35 54
e 35 57
e 35 61
e 35 65
e 35 68
e 35 70
e 35 71
e 35 72
e 35 77
e 35 78
e 35 79
e 35 80
e 35 82
e 35 89
e 35 98
e 35 103
e 35 104
e 35 108
e 35 114
e 35 116
e 35 120
e 35 121
e 35 122
e 35 127
e 35 130
e 35 131
e 35 132
e 35 133
e 35 136
e 35 138
e 35 139
e 35 141
e 35 142
e 35 145
e 35 146
e 35 148
e 35 150
e 36 39
e 36 46
e 36 47
e 36 48
e 36 49
e 36 54
e 36 57
e 36 59
e 36 62
e 36 63
e 36 65
e 36 69
e 36 70
e 36 71
e 36 72
e 36 77
e 36 79
e 36 80
e 36 81
e 36 83
e 36 84
e 36 87
e 36 94
e 36 96
e 36 99
e 36 104
e 36 107
e 36 109
e 36 112
e 36 113
e 36 116
e 36 119
e 36 120
e 36 121
e 36 125
e 36 126
e 36 129
e 36 130
e 36 132
e 36 137
e 36 138
e 36 139
e 36 144
e 37 39
e 37 44
e 37 45
e 37 46
e 37 48
e 37 50
e 37 51
e 37 52
e 37 57
e 37 58
e 37 60
e 37 63
e 37 64
e 37 65
e 37 69
e 37 70
e 37 71
e 37 72
e 37 75
e 37 77
e 37 80
e 37 81
e 37 84
e 37 87
e 37 89
e 37 90
e 37 93
e 37 96
e 37 100
e 37 101
e 37 107
e 37 108
e 37 109
e 37 113
e 37 117
e 37 118
e 37 119
e 37 122
e 37 124
e 37 125
e 37 127
e 37 128
e 37 133
e 37 136
e 37 138
e 37 142
e 37 143
e 37 146
e 38 44
e 38 45
e 38 46
e 38 47
e 38 59
e 38 60
e 38 63
e 38 65
e 38 69
e 38 71
e 38 73
e 38 76
e 38 77
e 38 78
e 38 81
e 38 84
e 38 88
e 38 90
e 38 92
e 38 95
e 38 97
e 38 98
e 38 104
e 38 106
e 38 108
e 38 112
e 38 114
e 38 116
e 38 119
e 38 121
e 38 125
e 38 127
e 38 129
e 38 132
e 38 137
e 38 138
e 38 139
e 38 141
e 38 142
e 38 143
e 38 144
e 38 145
e 38 150
e 39 40
e 39 44
e 39 48
e 39 56
e 39 58
e 39 60
e 39 64
e 39 65
e 39 72
e 39 80
e 39 81
e 39 87
e 39 88
e 39 91
e 39 92
e 39 94
e 39 95
e 39 97
e 39 100
e 39 106
e 39 109
e 39 110
e 39 111
e 39 114
e 39 115
e 39 117
e 39 122
e 39 123
e 39 124
e 39 126
e 39 132
e 39 133
e 39 137
e 39 140
e 39 141
e 39 145
e 39 147
e 39 150
e 40 44
e 40 49
e 40 50
e 40 51
e 40 52
e 40 56
e 40 57
e 40 60
e 40 61
e 40 68
e 40 70
e 40 71
e 40 78
e 40 81
e 40 83
e 40 84
e 40 88
e 40 89
e 40 90
e 40 94
e 40 96
e 40 98
e 40 99
e 40 106
e 40 109
e 40 111
e 40 116
e 40 118
e 40 121
e 40 125
e 40 127
e 40 135
e 40 137
e 40 142
e 40 149
e 41 43
e 41 44
e 41 45
e 41 48
e 41 49
e 41 50
e 41 51
e 41 54
e 41 55
e 41 56
e 41 57
e 41 62
e 41 63
e 41 65
e 41 66
e 41 68
e 41 69
e 41 70
e 41 72
e 41 76
e 41 77
e 41 81
e 41 82
e 41 83
e 41 84
e 41 87
e 41 88
e 41 91
e 41 94
e 41 96
e 41 97
e 41 100
e 41 101
e 41 102
e 41 106
e 41 107
e 41 108
e 41 109
e 41 117
e 41 121
e 41 122
e 41 123
e 41 126
e 41 128
e 41 130
e 41 131
e 41 133
e 41 134
e 41 137
e 41 140
e 41 141
e 41 142
e 41 146
e 41 149
e 41 150
e 42 43
e 42 44
e 42 50
e 42 55
e 42 57
e 42 59
e 42 64
e 42 65
e 42 67
e 42 68
e 42 69
e 42 70
e 42 72
e 42 73
e 42 75
e 42 76
e 42 79
e 42 92
e 42 94
e 42 95
e 42 100
e 42 101
e 42 102
e 42 105
e 42 109
e 42 112
e 42 115
e 42 117
e 42 118
e 42 120
e 42 121
e 42 127
e 42 128
e 42 129
e 42 142
e 42 143
e 42 146
e 42 148
e 43 46
e 43 47
e 43 59
e 43 61
e 43 63
e 43 66
e 43 67
e 43 68
e 43 69
e 43 72
e 43 74
e 43 75
e 43 82
e 43 84
e 43 85
e 43 87
e 43 89
e 43 91
e 43 93
e 43 98
e 43 99
e 43 101
e 43 102
e 43 104
e 43 109
e 43 111
e 43 113
e 43 114
e 43 116
e 43 117
e 43 119
e 43 123
e 43 124
e 43 131
e 43 133
e 43 134
e 43 138
e 43 139
e 43 140
e 43 141
e 43 144
e 43 146
e 43 150
e 44 47
e 44 48
e 44 50
e 44 54
e 44 67
e 44 69
e 44 77
e 44 79
e 44 80
e 44 81
e 44 82
e 44 87
e 44 89
e 44 90
e 44 91
e 44 92
e 44 93
e 44 95
e 44 98
e 44 102
e 44 103
e 44 104
e 44 106
e 44 107
e 44 110
e 44 111
e 44 112
e 44 113
e 44 122
e 44 125
e 44 130
e 44 136
e 44 144
e 44 148
e 44 149
e 45 49
e 45 54
e 45 55
e 45 56
e 45 60
e 45 62
e 45 64
e 45 67
e 45 69
e 45 71
e 45 75
e 45 78
e 45 79
e 45 80
e 45 82
e 45 83
e 45 86
e 45 87
e 45 92
e 45 94
e 45 99
e 45 101
e 45 105
e 45 112
e 45 113
e 45 118
e 45 119
e 45 121
e 45 124
e 45 129
e 45 130
e 45 131
e 45 133
e 45 134
e 45 135
e 45 138
e 45 142
e 45 145
e 45 149
e 46 50
e 46 52
e 46 53
e 46 55
e 46 57
e 46 58
e 46 62
e 46 66
e 46 68
e 46 69
e 46 71
e 46 73
e 46 76
e 46 77
e 46 78
e 46 85
e 46 86
e 46 90
e 46 91
e 46 92
e 46 94
e 46 97
e 46 99
e 46 102
e 46 103
e 46 105
e 46 108
e 46 110
e 46 113
e 46 114
e 46 117
e 46 119
e 46 122
e 46 125
e 46 127
e 46 128
e 46 129
e 46 130
e 46 138
e 46 143
e 46 144
e 46 145
e 46 149
e 47 49
e 47 50
e 47 52
e 47 54
e 47 56
e 47 58
e 47 60
e 47 62
e 47 63
e 47 67
e 47 68
e 47 70
e 47 76
e 47 77
e 47 79
e 47 80
e 47 82
e 47 85
e 47 90
e 47 92
e 47 94
e 47 101
e 47 103
e 47 104
e 47 105
e 47 106
e 47 107
e 47 111
e 47 114
e 47 115
e 47 118
e 47 120
e 47 124
e 47 126
e 47 128
e 47 129
e 47 130
e 47 132
e 47 133
e 47 139
e 47 140
e 47 141
e 47 143
e 47 144
e 47 146
e 47 147
e 47 148
e 47 150
e 48 49
e 48 52
e 48 53
e 48 56
e 48 60
e 48 61
e 48 62
e 48 65
e 48 68
e 48 72
e 48 76
e 48 78
e 48 80
e 48 83
e 48 86
e 48 87
e 48 88
e 48 90
e 48 94
e 48 95
e 48 96
e 48 97
e 48 99
e 48 101
e 48 102
e 48 104
e 48 105
e 48 107
e 48 109
e 48 110
e 48 114
e 48 116
e 48 117
e 48 119
e 48 123
e 48 124
e 48 125
e 48 128
e 48 134
e 48 138
e 48 139
e 48 143
e 48 144
e 48 147
e 49 51
e 49 52
e 49 54
e 49 55
e 49 58
e 49 60
e 49 61
e 49 62
e 49 64
e 49 65
e 49 67
e 49 71
e 49 72
e 49 74
e 49 77
e 49 78
e 49 81
e 49 82
e 49 87
e 49 88
e 49 92
e 49 95
e 49 96
e 49 97
e 49 99
e 49 102
e 49 104
e 49 105
e 49 106
e 49 107
e 49 108
e 49 111
e 49 120
e 49 123
e 49 125
e 49 127
e 49 128
e 49 129
e 49 130
e 49 131
e 49 134
e 49 135
e 49 136
e 49 143
e 49 144
e 49 145
e 49 146
e 49 147
e 49 150
e 50 57
e 50 63
e 50 64
e 50 65
e 50 67
e 50 68
e 50 72
e 50 73
e 50 76
e 50 78
e 50 83
e 50 84
e 50 85
e 50 86
e 50 92
e 50 93
e 50 94
e 50 95
e 50 97
e 50 99
e 50 104
e 50 105
e 50 106
e 50 107
e 50 108
e 50 109
e 50 110
e 50 113
e 50 118
e 50 119
e 50 120
e 50 125
e 50 128
e 50 133
e 50 134
e 50 139
e 50 142
e 50 143
e 50 144
e 51 52
e 51 53
e 51 54
e 51 57
e 51 58
e 51 61
e 51 64
e 51 66
e 51 67
e 51 71
e 51 73
e 51 74
e 51 75
e 51 78
e 51 84
e 51 88
e 51 89
e 51 92
e 51 95
e 51 96
e 51 99
e 51 106
e 51 108
e 51 110
e 51 112
e 51 113
e 51 114
e 51 115
e 51 116
e 51 117
e 51 118
e 51 119
e 51 120
e 51 125
e 51 128
e 51 133
e 51 134
e 51 136
e 51 139
e 51 140
e 51 143
e 51 145
e 51 147
e 51 150
e 52 53
e 52 58
e 52 61
e 52 62
e 52 64
e 52 68
e 52 70
e 52 71
e 52 72
e 52 76
e 52 82
e 52 84
e 52 87
e 52 91
e 52 92
e 52 93
e 52 98
e 52 100
e 52 109
e 52 115
e 52 117
e 52 118
e 52 124
e 52 125
e 52 129
e 52 131
e 52 133
e 52 140
e 52 141
e 52 144
e 52 149
e 53 54
e 53 56
e 53 58
e 53 66
e 53 67
e 53 73
e 53 76
e 53 77
e 53 78
e 53 79
e 53 80
e 53 84
e 53 89
e 53 90
e 53 92
e 53 94
e 53 95
e 53 108
e 53 109
e 53 110
e 53 111
e 53 112
e 53 113
e 53 115
e 53 116
e 53 122
e 53 125
e 53 131
e 53 135
e 53 140
e 53 143
e 53 145
e 53 146
e 53 147
e 53 150
e 54 55
e 54 57
e 54 65
e 54 66
e 54 68
e 54 71
e 54 72
e 54 75
e 54 76
e 54 84
e 54 85
e 54 92
e 54 94
e 54 95
e 54 96
e 54 98
e 54 102
e 54 104
e 54 114
e 54 116
e 54 117
e 54 118
e 54 119
e 54 122
e 54 124
e 54 125
e 54 127
e 54 129
e 54 133
e 54 134
e 54 141
e 54 147
e 55 57
e 55 58
e 55 59
e 55 60
e 55 62
e 55 63
e 55 66
e 55 69
e 55 71
e 55 72
e 55 75
e 55 83
e 55 86
e 55 92
e 55 96
e 55 100
e 55 101
e 55 104
e 55 105
e 55 106
e 55 114
e 55 115
e 55 117
e 55 120
e 55 121
e 55 122
e 55 125
e 55 126
e 55 127
e 55 128
e 55 130
e 55 131
e 55 133
e 55 136
e 55 138
e 55 145
e 55 149
e 56 57
e 56 61
e 56 63
e 56 64
e 56 68
e 56 69
e 56 70
e 56 74
e 56 75
e 56 77
e 56 81
e 56 82
e 56 83
e 56 86
e 56 90
e 56 94
e 56 95
e 56 96
e 56 97
e 56 98
e 56 99
e 56 102
e 56 103
e 56 104
e 56 105
e 56 108
e 56 111
e 56 115
e 56 117
e 56 122
e 56 124
e 56 129
e 56 130
e 56 131
e 56 132
e 56 133
e 56 134
e 56 135
e 56 136
e 56 137
e 56 138
e 56 145
e 56 148
e 57 61
e 57 63
e 57 64
e 57 65
e 57 75
e 57 77
e 57 79
e 57 84
e 57 86
e 57 88
e 57 97
e 57 98
e 57 99
e 57 104
e 57 110
e 57 112
e 57 118
e 57 121
e 57 128
e 57 129
e 57 130
e 57 134
e 57 135
e 57 138
e 57 142
e 57 145
e 58 61
e 58 68
e 58 75
e 58 77
e 58 81
e 58 82
e 58 84
e 58 86
e 58 91
e 58 93
e 58 94
e 58 95
e 58 108
e 58 109
e 58 112
e 58 113
e 58 118
e 58 119
e 58 121
e 58 122
e 58 123
e 58 125
e 58 127
e 58 131
e 58 132
e 58 133
e 58 135
e 58 137
e 58 141
e 58 142
e 58 144
e 58 147
e 59 61
e 59 62
e 59 64
e 59 67
e 59 70
e 59 71
e 59 72
e 59 76
e 59 77
e 59 78
e 59 81
e 59 82
e 59 88
e 59 94
e 59 100
e 59 108
e 59 110
e 59 111
e 59 114
e 59 115
e 59 117
e 59 118
e 59 123
e 59 125
e 59 131
e 59 132
e 59 133
e 59 135
e 59 140
e 59 142
e 59 143
e 59 144
e 59 147
e 59 149
e 59 150
e 60 67
e 60 69
e 60 71
e 60 72
e 60 76
e 60 77
e 60 80
e 60 81
e 60 91
e 60 94
e 60 95
e 60 96
e 60 97
e 60 98
e 60 103
e 60 105
e 60 106
e 60 108
e 60 112
e 60 113
e 60 117
e 60 119
e 60 120
e 60 122
e 60 123
e 60 127
e 60 129
e 60 134
e 60 138
e 60 139
e 60 140
e 60 144
e 60 145
e 60 146
e 60 149
e 60 150
e 61 62
e 61 65
e 61 68
e 61 70
e 61 71
e 61 78
e 61 79
e 61 80
e 61 81
e 61 86
e 61 88
e 61 89
e 61 95
e 61 98
e 61 100
e 61 103
e 61 104
e 61 105
e 61 109
e 61 110
e 61 111
e 61 114
e 61 115
e 61 120
e 61 121
e 61 122
e 61 124
e 61 125
e 61 128
e 61 131
e 61 133
e 61 139
e 61 140
e 61 142
e 61 144
e 61 149
e 61 150
e 62 69
e 62 72
e 62 73
e 62 75
e 62 77
e 62 79
e 62 86
e 62 88
e 62 89
e 62 91
e 62 93
e 62 94
e 62 95
e 62 96
e 62 97
e 62 100
e 62 102
e 62 104
e 62 105
e 62 106
e 62 117
e 62 120
e 62 121
e 62 123
e 62 125
e 62 132
e 62 139
e 62 143
e 62 145
e 62 148
e 63 64
e 63 66
e 63 67
e 63 68
e 63 81
e 63 84
e 63 87
e 63 89
e 63 90
e 63 93
e 63 94
e 63 96
e 63 99
e 63 102
e 63 106
e 63 107
e 63 108
e 63 115
e 63 116
e 63 121
e 63 123
e 63 125
e 63 131
e 63 134
e 63 135
e 63 148
e 63 150
e 64 65
e 64 68
e 64 70
e 64 72
e 64 74
e 64 75
e 64 76
e 64 79
e 64 82
e 64 83
e 64 85
e 64 90
e 64 104
e 64 106
e 64 108
e 64 109
e 64 111
e 64 112
e 64 116
e 64 117
e 64 119
e 64 121
e 64 122
e 64 126
e 64 129
e 64 130
e 64 132
e 64 136
e 64 137
e 64 140
e 64 141
e 64 143
e 64 144
e 64 145
e 65 66
e 65 68
e 65 69
e 65 71
e 65 74
e 65 77
e 65 78
e 65 81
e 65 85
e 65 87
e 65 90
e 65 95
e 65 96
e 65 99
e 65 101
e 65 106
e 65 107
e 65 109
e 65 114
e 65 115
e 65 117
e 65 118
e 65 119
e 65 122
e 65 124
e 65 125
e 65 126
e 65 128
e 65 129
e 65 130
e 65 131
e 65 132
e 65 137
e 65 140
e 65 141
e 65 143
e 65 146
e 65 147
e 65 148
e 65 149
e 66 68
e 66 69
e 66 73
e 66 74
e 66 76
e 66 77
e 66 78
e 66 79
e 66 86
e 66 88
e 66 90
e 66 91
e 66 92
e 66 95
e 66 96
e 66 98
e 66 100
e 66 101
e 66 110
e 66 111
e 66 116
e 66 120
e 66 121
e 66 123
e 66 124
e 66 125
e 66 132
e 66 133
e 66 134
e 66 143
e 66 146
e 66 149
e 66 150
e 67 72
e 67 74
e 67 77
e 67 81
e 67 84
e 67 86
e 67 89
e 67 93
e 67 96
e 67 98
e 67 99
e 67 104
e 67 108
e 67 109
e 67 111
e 67 112
e 67 114
e 67 117
e 67 118
e 67 120
e 67 125
e 67 126
e 67 128
e 67 131
e 67 135
e 67 137
e 67 138
e 67 139
e 67 140
e 67 143
e 67 147
e 67 148
e 67 149
e 67 150
e 68 78
e 68 81
e 68 84
e 68 85
e 68 86
e 68 87
e 68 88
e 68 93
e 68 94
e 68 96
e 68 97
e 68 99
e 68 100
e 68 101
e 68 103
e 68 109
e 68 112
e 68 114
e 68 116
e 68 121
e 68 122
e 68 123
e 68 126
e 68 130
e 68 131
e 68 132
e 68 134
e 68 135
e 68 136
e 68 137
e 68 138
e 68 145
e 68 150
e 69 75
e 69 76
e 69 79
e 69 80
e 69 82
e 69 83
e 69 84
e 69 88
e 69 89
e 69 91
e 69 92
e 69 94
e 69 95
e 69 97
e 69 98
e 69 102
e 69 107
e 69 108
e 69 109
e 69 110
e 69 112
e 69 121
e 69 122
e 69 124
e 69 125
e 69 127
e 69 130
e 69 136
e 69 140
e 69 141
e 69 143
e 69 146
e 69 147
e 69 150
e 70 71
e 70 72
e 70 73
e 70 74
e 70 79
e 70 84
e 70 86
e 70 88
e 70 90
e 70 92
e 70 93
e 70 94
e 70 95
e 70 96
e 70 101
e 70 110
e 70 111
e 70 112
e 70 114
e 70 117
e 70 119
e 70 122
e 70 123
e 70 125
e 70 131
e 70 133
e 70 135
e 70 140
e 70 142
e 70 145
e 71 73
e 71 75
e 71 76
e 71 77
e 71 79
e 71 81
e 71 88
e 71 89
e 71 90
e 71 94
e 71 95
e 71 101
e 71 112
e 71 114
e 71 117
e 71 118
e 71 120
e 71 121
e 71 124
e 71 129
e 71 133
e 71 136
e 71 140
e 71 142
e 71 144
e 71 145
e 71 150
e 72 74
e 72 75
e 72 77
e 72 79
e 72 81
e 72 87
e 72 88
e 72 89
e 72 90
e 72 91
e 72 92
e 72 94
e 72 100
e 72 101
e 72 105
e 72 107
e 72 108
e 72 109
e 72 113
e 72 116
e 72 120
e 72 126
e 72 127
e 72 129
e 72 141
e 72 143
e 72 144
e 72 148
e 72 150
e 73 74
e 73 75
e 73 76
e 73 77
e 73 78
e 73 79
e 73 81
e 73 82
e 73 86
e 73 87
e 73 90
e 73 94
e 73 96
e 73 97
e 73 103
e 73 106
e 73 107
e 73 109
e 73 113
e 73 115
e 73 116
e 73 117
e 73 121
e 73 123
e 73 124
e 73 126
e 73 131
e 73 132
e 73 133
e 73 136
e 73 142
e 73 144
e 73 146
e 73 147
e 74 75
e 74 76
e 74 79
e 74 82
e 74 86
e 74 87
e 74 88
e 74 90
e 74 92
e 74 95
e 74 96
e 74 98
e 74 101
e 74 102
e 74 111
e 74 112
e 74 116
e 74 121
e 74 125
e 74 128
e 74 133
e 74 136
e 74 139
e 74 144
e 74 145
e 74 146
e 74 148
e 75 84
e 75 86
e 75 87
e 75 90
e 75 91
e 75 93
e 75 96
e 75 97
e 75 100
e 75 101
e 75 102
e 75 107
e 75 108
e 75 119
e 75 123
e 75 124
e 75 127
e 75 128
e 75 129
e 75 132
e 75 133
e 75 135
e 75 139
e 75 142
e 75 143
e 75 144
e 75 145
e 75 147
e 75 150
e 76 77
e 76 78
e 76 80
e 76 81
e 76 85
e 76 87
e 76 94
e 76 99
e 76 100
e 76 101
e 76 102
e 76 104
e 76 109
e 76 123
e 76 126
e 76 127
e 76 128
e 76 133
e 76 135
e 76 144
e 76 146
e 76 149
e 76 150
e 77 80
e 77 85
e 77 89
e 77 90
e 77 91
e 77 92
e 77 93
e 77 94
e 77 95
e 77 96
e 77 98
e 77 102
e 77 108
e 77 110
e 77 111
e 77 112
e 77 113
e 77 116
e 77 120
e 77 124
e 77 128
e 77 130
e 77 131
e 77 132
e 77 133
e 77 136
e 77 138
e 77 139
e 77 140
e 77 142
e 77 147
e 77 148
e 77 149
e 78 82
e 78 83
e 78 85
e 78 88
e 78 91
e 78 93
e 78 95
e 78 96
e 78 99
e 78 100
e 78 101
e 78 102
e 78 104
e 78 105
e 78 108
e 78 109
e 78 112
e 78 115
e 78 116
e 78 117
e 78 122
e 78 124
e 78 126
e 78 127
e 78 131
e 78 133
e 78 135
e 78 138
e 78 139
e 78 141
e 78 142
e 78 146
e 78 147
e 79 86
e 79 90
e 79 93
e 79 94
e 79 95
e 79 101
e 79 105
e 79 106
e 79 111
e 79 112
e 79 114
e 79 116
e 79 117
e 79 122
e 79 123
e 79 124
e 79 125
e 79 127
e 79 129
e 79 130
e 79 137
e 79 139
e 79 140
e 79 145
e 79 146
e 79 148
e 79 149
e 80 82
e 80 84
e 80 87
e 80 93
e 80 96
e 80 100
e 80 103
e 80 107
e 80 111
e 80 112
e 80 113
e 80 120
e 80 122
e 80 123
e 80 125
e 80 126
e 80 130
e 80 131
e 80 133
e 80 136
e 80 137
e 80 140
e 80 142
e 80 143
e 80 146
e 81 83
e 81 87
e 81 92
e 81 94
e 81 97
e 81 99
e 81 103
e 81 105
e 81 112
e 81 113
e 81 115
e 81 118
e 81 121
e 81 123
e 81 124
e 81 128
e 81 133
e 81 135
e 81 138
e 81 142
e 81 144
e 81 145
e 81 147
e 81 150
e 82 83
e 82 84
e 82 86
e 82 89
e 82 91
e 82 93
e 82 95
e 82 99
e 82 102
e 82 104
e 82 108
e 82 114
e 82 115
e 82 117
e 82 119
e 82 120
e 82 121
e 82 124
e 82 126
e 82 127
e 82 128
e 82 129
e 82 130
e 82 133
e 82 136
e 82 138
e 82 139
e 82 141
e 82 143
e 82 146
e 82 147
e 82 148
e 82 150
e 83 85
e 83 86
e 83 88
e 83 89
e 83 92
e 83 94
e 83 97
e 83 100
e 83 104
e 83 107
e 83 109
e 83 112
e 83 114
e 83 116
e 83 122
e 83 124
e 83 127
e 83 130
e 83 134
e 83 136
e 83 137
e 83 138
e 83 140
e 83 143
e 83 144
e 83 145
e 83 148
e 83 149
e 84 85
e 84 87
e 84 90
e 84 91
e 84 92
e 84 99
e 84 100
e 84 101
e 84 102
e 84 103
e 84 104
e 84 109
e 84 112
e 84 113
e 84 116
e 84 119
e 84 120
e 84 121
e 84 125
e 84 126
e 84 129
e 84 130
e 84 133
e 84 134
e 84 138
e 84 139
e 84 146
e 84 147
e 84 148
e 84 149
e 85 88
e 85 93
e 85 94
e 85 97
e 85 98
e 85 103
e 85 104
e 85 107
e 85 109
e 85 110
e 85 113
e 85 116
e 85 117
e 85 120
e 85 121
e 85 124
e 85 126
e 85 132
e 85 134
e 85 135
e 85 136
e 85 138
e 85 142
e 85 143
e 85 145
e 85 146
e 86 87
e 86 89
e 86 97
e 86 99
e 86 100
e 86 101
e 86 102
e 86 105
e 86 110
e 86 118
e 86 120
e 86 126
e 86 127
e 86 128
e 86 130
e 86 131
e 86 135
e 86 137
e 86 139
e 86 140
e 86 141
e 86 145
e 86 146
e 86 147
e 86 150
e 87 89
e 87 90
e 87 91
e 87 93
e 87 94
e 87 95
e 87 97
e 87 100
e 87 110
e 87 111
e 87 112
e 87 113
e 87 114
e 87 116
e 87 118
e 87 120
e 87 121
e 87 126
e 87 127
e 87 128
e 87 130
e 87 131
e 87 139
e 87 141
e 87 145
e 87 147
e 87 149
e 88 89
e 88 92
e 88 100
e 88 101
e 88 102
e 88 104
e 88 105
e 88 106
e 88 109
e 88 110
e 88 111
e 88 113
e 88 114
e 88 115
e 88 116
e 88 126
e 88 127
e 88 128
e 88 129
e 88 138
e 88 139
e 88 146
e 88 149
e 88 150
e 89 96
e 89 97
e 89 98
e 89 101
e 89 109
e 89 110
e 89 118
e 89 119
e 89 120
e 89 121
e 89 122
e 89 128
e 89 129
e 89 133
e 89 134
e 89 137
e 89 138
e 89 144
e 89 147
e 90 91
e 90 92
e 90 99
e 90 108
e 90 110
e 90 111
e 90 119
e 90 121
e 90 124
e 90 125
e 90 128
e 90 130
e 90 137
e 90 144
e 90 145
e 90 148
e 90 149
e 90 150
e 91 93
e 91 97
e 91 99
e 91 100
e 91 102
e 91 104
e 91 105
e 91 106
e 91 107
e 91 113
e 91 114
e 91 120
e 91 121
e 91 124
e 91 125
e 91 128
e 91 129
e 91 130
e 91 132
e 91 134
e 91 137
e 91 141
e 91 143
e 91 144
e 91 148
e 91 149
e 91 150
e 92 94
e 92 95
e 92 96
e 92 97
e 92 105
e 92 107
e 92 108
e 92 109
e 92 110
e 92 115
e 92 117
e 92 119
e 92 121
e 92 122
e 92 123
e 92 124
e 92 127
e 92 129
e 92 130
e 92 133
e 92 136
e 92 138
e 92 139
e 92 140
e 92 141
e 92 143
e 92 144
e 92 147
e 92 150
e 93 99
e 93 100
e 93 101
e 93 108
e 93 109
e 93 110
e 93 111
e 93 112
e 93 113
e 93 115
e 93 117
e 93 118
e 93 120
e 93 123
e 93 126
e 93 128
e 93 129
e 93 130
e 93 132
e 93 134
e 93 136
e 93 140
e 93 145
e 93 146
e 93 147
e 93 148
e 94 95
e 94 98
e 94 101
e 94 103
e 94 105
e 94 107
e 94 108
e 94 110
e 94 111
e 94 112
e 94 114
e 94 115
e 94 117
e 94 122
e 94 125
e 94 126
e 94 130
e 94 131
e 94 132
e 94 136
e 94 140
e 94 147
e 95 96
e 95 99
e 95 102
e 95 104
e 95 105
e 95 110
e 95 114
e 95 115
e 95 117
e 95 118
e 95 121
e 95 125
e 95 126
e 95 127
e 95 128
e 95 134
e 95 137
e 95 140
e 95 141
e 95 142
e 95 143
e 95 144
e 95 146
e 95 148
e 95 149
e 95 150
e 96 100
e 96 101
e 96 105
e 96 107
e 96 108
e 96 111
e 96 115
e 96 116
e 96 117
e 96 118
e 96 119
e 96 120
e 96 123
e 96 126
e 96 127
e 96 128
e 96 130
e 96 131
e 96 132
e 96 138
e 96 140
e 96 141
e 96 143
e 96 145
e 96 150
e 97 100
e 97 101
e 97 102
e 97 105
e 97 109
e 97 110
e 97 111
e 97 113
e 97 115
e 97 117
e 97 120
e 97 122
e 97 126
e 97 127
e 97 130
e 97 132
e 97 133
e 97 134
e 97 137
e 97 141
e 97 143
e 97 145
e 97 148
e 98 99
e 98 100
e 98 103
e 98 110
e 98 111
e 98 116
e 98 121
e 98 122
e 98 127
e 98 129
e 98 136
e 98 137
e 98 139
e 98 140
e 98 142
e 99 101
e 99 102
e 99 107
e 99 110
e 99 113
e 99 114
e 99 117
e 99 118
e 99 120
e 99 124
e 99 126
e 99 128
e 99 129
e 99 130
e 99 131
e 99 132
e 99 134
e 99 138
e 99 141
e 99 142
e 99 144
e 99 145
e 99 148
e 100 102
e 100 105
e 100 107
e 100 110
e 100 112
e 100 114
e 100 115
e 100 119
e 100 120
e 100 121
e 100 122
e 100 123
e 100 124
e 100 127
e 100 129
e 100 133
e 100 139
e 100 145
e 100 148
e 100 149
e 101 106
e 101 108
e 101 109
e 101 111
e 101 112
e 101 113
e 101 116
e 101 118
e 101 119
e 101 120
e 101 122
e 101 124
e 101 125
e 101 128
e 101 131
e 101 132
e 101 137
e 101 139
e 101 140
e 101 146
e 101 147
e 102 104
e 102 105
e 102 108
e 102 110
e 102 111
e 102 117
e 102 119
e 102 120
e 102 121
e 102 122
e 102 127
e 102 136
e 102 137
e 102 138
e 102 142
e 102 146
e 102 150
e 103 104
e 103 105
e 103 106
e 103 107
e 103 108
e 103 112
e 103 113
e 103 114
e 103 116
e 103 120
e 103 121
e 103 126
e 103 130
e 103 135
e 103 136
e 103 140
e 103 141
e 103 142
e 103 146
e 103 150
e 104 107
e 104 109
e 104 114
e 104 116
e 104 120
e 104 122
e 104 123
e 104 125
e 104 133
e 104 134
e 104 135
e 104 138
e 104 142
e 104 144
e 104 145
e 104 147
e 104 149
e 104 150
e 105 107
e 105 111
e 105 116
e 105 118
e 105 119
e 105 121
e 105 122
e 105 126
e 105 127
e 105 128
e 105 133
e 105 134
e 105 135
e 105 137
e 105 138
e 105 140
e 105 142
e 105 147
e 105 148
e 105 149
e 106 107
e 106 108
e 106 109
e 106 113
e 106 114
e 106 116
e 106 118
e 106 121
e 106 124
e 106 125
e 106 126
e 106 127
e 106 133
e 106 135
e 106 136
e 106 137
e 106 138
e 106 142
e 106 146
e 106 147
e 106 148
e 106 149
e 106 150
e 107 108
e 107 109
e 107 110
e 107 111
e 107 112
e 107 114
e 107 116
e 107 117
e 107 121
e 107 129
e 107 130
e 107 131
e 107 132
e 107 134
e 107 139
e 107 145
e 107 146
e 107 148
e 108 110
e 108 111
e 108 112
e 108 113
e 108 114
e 108 115
e 108 116
e 108 119
e 108 122
e 108 124
e 108 125
e 108 126
e 108 128
e 108 133
e 108 146
e 109 111
e 109 112
e 109 115
e 109 119
e 109 121
e 109 128
e 109 129
e 109 135
e 109 137
e 109 139
e 109 140
e 109 141
e 109 143
e 109 145
e 109 149
e 110 112
e 110 115
e 110 116
e 110 120
e 110 127
e 110 129
e 110 131
e 110 134
e 110 143
e 110 144
e 110 148
e 110 150
e 111 113
e 111 115
e 111 116
e 111 118
e 111 122
e 111 126
e 111 128
e 111 131
e 111 134
e 111 136
e 111 138
e 111 141
e 111 144
e 111 146
e 111 149
e 112 114
e 112 116
e 112 117
e 112 118
e 112 124
e 112 127
e 112 129
e 112 131
e 112 133
e 112 138
e 112 143
e 112 144
e 112 145
e 112 148
e 113 116
e 113 117
e 113 118
e 113 120
e 113 121
e 113 122
e 113 124
e 113 125
e 113 126
e 113 127
e 113 128
e 113 130
e 113 135
e 113 137
e 113 141
e 113 144
e 113 147
e 113 149
e 114 122
e 114 123
e 114 124
e 114 126
e 114 127
e 114 130
e 114 132
e 114 135
e 114 136
e 114 139
e 114 141
e 114 144
e 114 145
e 114 146
e 114 147
e 114 148
e 115 116
e 115 117
e 115 120
e 115 121
e 115 122
e 115 124
e 115 133
e 115 134
e 115 135
e 115 136
e 115 137
e 115 138
e 115 139
e 115 140
e 115 144
e 115 145
e 115 146
e 115 147
e 116 117
e 116 118
e 116 119
e 116 124
e 116 125
e 116 134
e 116 137
e 116 138
e 116 140
e 116 141
e 116 142
e 116 144
e 116 145
e 116 147
e 116 149
e 116 150
e 117 118
e 117 121
e 117 122
e 117 124
e 117 129
e 117 131
e 117 133
e 117 134
e 117 141
e 117 142
e 117 144
e 117 145
e 117 147
e 118 121
e 118 123
e 118 128
e 118 129
e 118 132
e 118 133
e 118 134
e 118 135
e 118 138
e 118 143
e 118 146
e 118 148
e 118 150
e 119 125
e 119 127
e 119 129
e 119 130
e 119 131
e 119 135
e 119 137
e 119 139
e 119 140
e 119 149
e 120 122
e 120 125
e 120 134
e 120 135
e 120 140
e 120 144
e 120 145
e 120 147
e 121 123
e 121 126
e 121 127
e 121 128
e 121 131
e 121 132
e 121 135
e 121 142
e 121 143
e 121 144
e 121 147
e 122 124
e 122 128
e 122 131
e 122 136
e 122 138
e 122 145
e 122 146
e 122 147
e 123 125
e 123 127
e 123 129
e 123 130
e 123 133
e 123 134
e 123 136
e 123 138
e 123 142
e 123 145
e 123 146
e 123 148
e 123 150
e 124 125
e 124 126
e 124 130
e 124 134
e 124 135
e 124 137
e 124 138
e 124 141
e 124 143
e 124 144
e 124 149
e 125 126
e 125 127
e 125 128
e 125 131
e 125 134
e 125 137
e 125 138
e 125 149
e 126 127
e 126 129
e 126 132
e 126 133
e 126 141
e 126 142
e 126 144
e 126 147
e 126 148
e 126 150
e 127 129
e 127 130
e 127 131
e 127 135
e 127 139
e 127 140
e 127 145
e 127 150
e 128 135
e 128 137
e 128 138
e 128 139
e 128 141
e 128 143
e 128 148
e 129 133
e 129 136
e 129 137
e 129 138
e 129 139
e 129 143
e 129 147
e 129 148
e 129 149
e 130 133
e 130 135
e 130 136
e 130 139
e 130 140
e 130 141
e 130 142
e 130 144
e 130 146
e 131 134
e 131 136
e 131 138
e 131 143
e 131 148
e 131 150
e 132 136
e 132 138
e 132 144
e 132 149
e 133 136
e 133 139
e 133 140
e 133 142
e 133 147
e 134 137
e 134 140
e 134 149
e 135 136
e 135 145
e 135 148
e 135 149
e 135 150
e 136 138
e 136 142
e 136 144
e 136 145
e 136 146
e 137 140
e 137 142
e 137 143
e 137 145
e 137 147
e 137 149
e 138 139
e 138 142
e 138 143
e 138 144
e 138 147
e 138 149
e 139 147
e 139 149
e 139 150
e 140 147
e 141 142
e 141 143
e 141 146
e 141 147
e 141 150
e 142 145
e 142 147
e 142 148
e 143 144
e 143 146
e 144 149
e 145 146
e 145 147
e 145 149
e 145 150
e 147 148
e 148 150
